(set-logic QF_UF)
(declare-fun G101 () Bool)
(declare-fun G104 () Bool)
(declare-fun G107 () Bool)
(declare-fun G110 () Bool)
(declare-fun G113 () Bool)
(declare-fun G116 () Bool)
(declare-fun G119 () Bool)
(declare-fun G122 () Bool)
(declare-fun G125 () Bool)
(declare-fun G128 () Bool)
(declare-fun G131 () Bool)
(declare-fun G134 () Bool)
(declare-fun G137 () Bool)
(declare-fun G140 () Bool)
(declare-fun G143 () Bool)
(declare-fun G146 () Bool)
(declare-fun G210 () Bool)
(declare-fun G214 () Bool)
(declare-fun G217 () Bool)
(declare-fun G221 () Bool)
(declare-fun G224 () Bool)
(declare-fun G227 () Bool)
(declare-fun G234 () Bool)
(declare-fun G237 () Bool)
(declare-fun G469 () Bool)
(declare-fun G472 () Bool)
(declare-fun G475 () Bool)
(declare-fun G478 () Bool)
(declare-fun G898 () Bool)
(declare-fun G900 () Bool)
(declare-fun G902 () Bool)
(declare-fun G952 () Bool)
(declare-fun G953 () Bool)
(assert (let ((.def_0 (not G125))) (let ((.def_1 (and .def_0 G140))) (let ((.def_2 (not .def_1))) (let ((.def_3 (not G140))) (let ((.def_4 (and .def_3 G125))) (let ((.def_5 (not .def_4))) (let ((.def_6 (and .def_5 .def_2))) (let ((.def_7 (not G146))) (let ((.def_8 (and .def_7 .def_6))) (let ((.def_9 (not .def_8))) (let ((.def_10 (not .def_6))) (let ((.def_11 (and G146 .def_10))) (let ((.def_12 (not .def_11))) (let ((.def_13 (and .def_12 .def_9))) (let ((.def_14 (not G131))) (let ((.def_15 (not G237))) (let ((.def_16 (not G953))) (let ((.def_17 (and .def_16 G214 .def_15))) (let ((.def_18 (and G143 .def_17))) (let ((.def_19 (not .def_18))) (let ((.def_20 (not .def_17))) (let ((.def_21 (not G143))) (let ((.def_22 (and .def_21 .def_20))) (let ((.def_23 (not .def_22))) (let ((.def_24 (and .def_23 .def_19))) (let ((.def_25 (and .def_24 .def_14))) (let ((.def_26 (not .def_25))) (let ((.def_27 (not .def_24))) (let ((.def_28 (and .def_27 G131))) (let ((.def_29 (not .def_28))) (let ((.def_30 (and .def_29 .def_26))) (let ((.def_31 (not .def_30))) (let ((.def_32 (and .def_31 .def_13))) (let ((.def_33 (not .def_32))) (let ((.def_34 (not .def_13))) (let ((.def_35 (and .def_34 .def_30))) (let ((.def_36 (not .def_35))) (let ((.def_37 (and .def_36 .def_33))) (let ((.def_38 (not G104))) (let ((.def_39 (not G113))) (let ((.def_40 (and G122 .def_39))) (let ((.def_41 (not .def_40))) (let ((.def_42 (not G122))) (let ((.def_43 (and .def_42 G113))) (let ((.def_44 (not .def_43))) (let ((.def_45 (and .def_44 .def_41))) (let ((.def_46 (and .def_45 .def_38))) (let ((.def_47 (not .def_46))) (let ((.def_48 (not .def_45))) (let ((.def_49 (and G104 .def_48))) (let ((.def_50 (not .def_49))) (let ((.def_51 (and .def_50 .def_47))) (let ((.def_52 (not .def_51))) (let ((.def_53 (and .def_52 .def_37))) (let ((.def_54 (not .def_53))) (let ((.def_55 (not .def_37))) (let ((.def_56 (and .def_51 .def_55))) (let ((.def_57 (not .def_56))) (let ((.def_58 (and .def_57 .def_54))) (let ((.def_59 (not .def_58))) (let ((.def_60 (not G902))) (let ((.def_61 (and .def_60 .def_59))) (let ((.def_62 (not G475))) (let ((.def_63 (and .def_62 .def_61))) (let ((.def_64 (not .def_63))) (let ((.def_65 (not .def_61))) (let ((.def_66 (and .def_65 G475))) (let ((.def_67 (not .def_66))) (let ((.def_68 (and .def_67 .def_64))) (let ((.def_69 (and .def_16 G234 G217))) (let ((.def_70 (not .def_69))) (let ((.def_71 (and G116 .def_42))) (let ((.def_72 (not .def_71))) (let ((.def_73 (not G116))) (let ((.def_74 (and .def_73 G122))) (let ((.def_75 (not .def_74))) (let ((.def_76 (and .def_75 .def_72))) (let ((.def_77 (not .def_76))) (let ((.def_78 (and .def_77 G107))) (let ((.def_79 (not .def_78))) (let ((.def_80 (not G107))) (let ((.def_81 (and .def_76 .def_80))) (let ((.def_82 (not .def_81))) (let ((.def_83 (and .def_82 .def_79))) (let ((.def_84 (not G134))) (let ((.def_85 (not G128))) (let ((.def_86 (and .def_85 G143))) (let ((.def_87 (not .def_86))) (let ((.def_88 (and .def_21 G128))) (let ((.def_89 (not .def_88))) (let ((.def_90 (and .def_89 .def_87))) (let ((.def_91 (and .def_90 .def_84))) (let ((.def_92 (not .def_91))) (let ((.def_93 (not .def_90))) (let ((.def_94 (and G134 .def_93))) (let ((.def_95 (not .def_94))) (let ((.def_96 (and .def_95 .def_92))) (let ((.def_97 (not .def_96))) (let ((.def_98 (and .def_97 .def_83))) (let ((.def_99 (not .def_98))) (let ((.def_100 (not .def_83))) (let ((.def_101 (and .def_100 .def_96))) (let ((.def_102 (not .def_101))) (let ((.def_103 (and .def_102 .def_99))) (let ((.def_104 (not .def_103))) (let ((.def_105 (and .def_104 .def_70))) (let ((.def_106 (not .def_105))) (let ((.def_107 (and .def_103 .def_69))) (let ((.def_108 (not .def_107))) (let ((.def_109 (and .def_108 .def_106))) (let ((.def_110 (not .def_109))) (let ((.def_111 (and .def_60 .def_110))) (let ((.def_112 (not G478))) (let ((.def_113 (and .def_112 .def_111))) (let ((.def_114 (not .def_113))) (let ((.def_115 (not .def_111))) (let ((.def_116 (and .def_115 G478))) (let ((.def_117 (not .def_116))) (let ((.def_118 (and .def_117 .def_114))) (let ((.def_119 (and .def_118 .def_68))) (let ((.def_120 (and .def_3 G110))) (let ((.def_121 (not .def_120))) (let ((.def_122 (not G110))) (let ((.def_123 (and G140 .def_122))) (let ((.def_124 (not .def_123))) (let ((.def_125 (and .def_124 .def_121))) (let ((.def_126 (and .def_16 G227))) (let ((.def_127 (and .def_126 .def_125))) (let ((.def_128 (not .def_127))) (let ((.def_129 (not .def_125))) (let ((.def_130 (not .def_126))) (let ((.def_131 (and .def_130 .def_129))) (let ((.def_132 (not .def_131))) (let ((.def_133 (and .def_132 .def_128))) (let ((.def_134 (not G101))) (let ((.def_135 (and G104 .def_80))) (let ((.def_136 (not .def_135))) (let ((.def_137 (and .def_38 G107))) (let ((.def_138 (not .def_137))) (let ((.def_139 (and .def_138 .def_136))) (let ((.def_140 (and .def_139 .def_134))) (let ((.def_141 (not .def_140))) (let ((.def_142 (not .def_139))) (let ((.def_143 (and .def_142 G101))) (let ((.def_144 (not .def_143))) (let ((.def_145 (and .def_144 .def_141))) (let ((.def_146 (not .def_145))) (let ((.def_147 (and .def_7 G143))) (let ((.def_148 (not .def_147))) (let ((.def_149 (and G146 .def_21))) (let ((.def_150 (not .def_149))) (let ((.def_151 (and .def_150 .def_148))) (let ((.def_152 (and .def_85 .def_151))) (let ((.def_153 (not .def_152))) (let ((.def_154 (not .def_151))) (let ((.def_155 (and G128 .def_154))) (let ((.def_156 (not .def_155))) (let ((.def_157 (and .def_156 .def_153))) (let ((.def_158 (not .def_157))) (let ((.def_159 (and .def_158 .def_146))) (let ((.def_160 (not .def_159))) (let ((.def_161 (and .def_145 .def_157))) (let ((.def_162 (not .def_161))) (let ((.def_163 (and .def_162 .def_160))) (let ((.def_164 (not .def_163))) (let ((.def_165 (not G137))) (let ((.def_166 (and .def_165 G134))) (let ((.def_167 (not .def_166))) (let ((.def_168 (and .def_84 G137))) (let ((.def_169 (not .def_168))) (let ((.def_170 (and .def_169 .def_167))) (let ((.def_171 (and .def_14 .def_170))) (let ((.def_172 (not .def_171))) (let ((.def_173 (not .def_170))) (let ((.def_174 (and .def_173 G131))) (let ((.def_175 (not .def_174))) (let ((.def_176 (and .def_175 .def_172))) (let ((.def_177 (not .def_176))) (let ((.def_178 (and .def_177 .def_164))) (let ((.def_179 (not .def_178))) (let ((.def_180 (and .def_176 .def_163))) (let ((.def_181 (not .def_180))) (let ((.def_182 (and .def_181 .def_179))) (let ((.def_183 (and .def_182 .def_133))) (let ((.def_184 (not .def_183))) (let ((.def_185 (not .def_133))) (let ((.def_186 (not .def_182))) (let ((.def_187 (and .def_186 .def_185))) (let ((.def_188 (not .def_187))) (let ((.def_189 (and .def_188 .def_184))) (let ((.def_190 (not .def_189))) (let ((.def_191 (and .def_60 .def_190))) (let ((.def_192 (not .def_191))) (let ((.def_193 (and .def_192 G469))) (let ((.def_194 (not .def_193))) (let ((.def_195 (not G469))) (let ((.def_196 (and .def_195 .def_191))) (let ((.def_197 (not .def_196))) (let ((.def_198 (and .def_197 .def_194))) (let ((.def_199 (and .def_60 G234))) (let ((.def_200 (not .def_199))) (let ((.def_201 (and G221 .def_200))) (let ((.def_202 (not .def_201))) (let ((.def_203 (and .def_202 .def_198))) (let ((.def_204 (and .def_60 .def_15))) (let ((.def_205 (not .def_204))) (let ((.def_206 (and G214 .def_205))) (let ((.def_207 (not .def_206))) (let ((.def_208 (not G119))) (let ((.def_209 (and G116 .def_208))) (let ((.def_210 (not .def_209))) (let ((.def_211 (and G119 .def_73))) (let ((.def_212 (not .def_211))) (let ((.def_213 (and .def_212 .def_210))) (let ((.def_214 (not .def_213))) (let ((.def_215 (and G113 .def_214))) (let ((.def_216 (not .def_215))) (let ((.def_217 (and .def_39 .def_213))) (let ((.def_218 (not .def_217))) (let ((.def_219 (and .def_218 .def_216))) (let ((.def_220 (and .def_80 G104))) (let ((.def_221 (not .def_220))) (let ((.def_222 (and G107 .def_38))) (let ((.def_223 (not .def_222))) (let ((.def_224 (and .def_223 .def_221))) (let ((.def_225 (and .def_224 .def_134))) (let ((.def_226 (not .def_225))) (let ((.def_227 (not .def_224))) (let ((.def_228 (and .def_227 G101))) (let ((.def_229 (not .def_228))) (let ((.def_230 (and .def_229 .def_226))) (let ((.def_231 (and .def_230 .def_219))) (let ((.def_232 (not .def_231))) (let ((.def_233 (not .def_230))) (let ((.def_234 (not .def_219))) (let ((.def_235 (and .def_234 .def_233))) (let ((.def_236 (not .def_235))) (let ((.def_237 (and .def_236 .def_232))) (let ((.def_238 (and .def_122 G122))) (let ((.def_239 (not .def_238))) (let ((.def_240 (and G110 .def_42))) (let ((.def_241 (not .def_240))) (let ((.def_242 (and .def_241 .def_239))) (let ((.def_243 (and .def_242 .def_237))) (let ((.def_244 (not .def_243))) (let ((.def_245 (not .def_237))) (let ((.def_246 (not .def_242))) (let ((.def_247 (and .def_246 .def_245))) (let ((.def_248 (not .def_247))) (let ((.def_249 (and .def_248 .def_244))) (let ((.def_250 (and .def_21 G146))) (let ((.def_251 (not .def_250))) (let ((.def_252 (and .def_148 .def_251))) (let ((.def_253 (not .def_252))) (let ((.def_254 (and G128 .def_253))) (let ((.def_255 (not .def_254))) (let ((.def_256 (and .def_252 .def_85))) (let ((.def_257 (not .def_256))) (let ((.def_258 (and .def_257 .def_255))) (let ((.def_259 (and .def_258 .def_0))) (let ((.def_260 (not .def_259))) (let ((.def_261 (not .def_258))) (let ((.def_262 (and .def_261 G125))) (let ((.def_263 (not .def_262))) (let ((.def_264 (and .def_263 .def_260))) (let ((.def_265 (and G224 .def_16))) (let ((.def_266 (and .def_265 .def_264))) (let ((.def_267 (not .def_266))) (let ((.def_268 (not .def_265))) (let ((.def_269 (not .def_264))) (let ((.def_270 (and .def_269 .def_268))) (let ((.def_271 (not .def_270))) (let ((.def_272 (and .def_271 .def_267))) (let ((.def_273 (and .def_272 .def_249))) (let ((.def_274 (not .def_273))) (let ((.def_275 (not .def_249))) (let ((.def_276 (not .def_272))) (let ((.def_277 (and .def_276 .def_275))) (let ((.def_278 (not .def_277))) (let ((.def_279 (and .def_278 .def_274))) (let ((.def_280 (and .def_279 .def_60))) (let ((.def_281 (not .def_280))) (let ((.def_282 (and .def_205 G210))) (let ((.def_283 (and .def_282 .def_281))) (let ((.def_284 (not .def_283))) (let ((.def_285 (not .def_282))) (let ((.def_286 (and .def_285 .def_280))) (let ((.def_287 (not .def_286))) (let ((.def_288 (and .def_287 .def_284))) (let ((.def_289 (not .def_288))) (let ((.def_290 (and .def_289 .def_207))) (let ((.def_291 (and G237 G234))) (let ((.def_292 (not .def_291))) (let ((.def_293 (not G898))) (let ((.def_294 (and .def_293 G953 .def_292 G902))) (let ((.def_295 (not .def_294))) (let ((.def_296 (and .def_292 .def_16 G952))) (let ((.def_297 (not .def_296))) (let ((.def_298 (and .def_297 .def_295))) (let ((.def_299 (not .def_298))) (let ((.def_300 (and G128 .def_208))) (let ((.def_301 (not .def_300))) (let ((.def_302 (and G119 .def_85))) (let ((.def_303 (not .def_302))) (let ((.def_304 (and .def_303 .def_301))) (let ((.def_305 (not .def_304))) (let ((.def_306 (and .def_305 G110))) (let ((.def_307 (not .def_306))) (let ((.def_308 (and .def_122 .def_304))) (let ((.def_309 (not .def_308))) (let ((.def_310 (and .def_309 .def_307))) (let ((.def_311 (and .def_6 .def_7))) (let ((.def_312 (not .def_311))) (let ((.def_313 (and .def_12 .def_312))) (let ((.def_314 (not .def_313))) (let ((.def_315 (and .def_314 .def_310))) (let ((.def_316 (not .def_315))) (let ((.def_317 (not .def_310))) (let ((.def_318 (and .def_313 .def_317))) (let ((.def_319 (not .def_318))) (let ((.def_320 (and .def_319 .def_316))) (let ((.def_321 (not .def_320))) (let ((.def_322 (and G234 G221 .def_16))) (let ((.def_323 (and G137 .def_322))) (let ((.def_324 (not .def_323))) (let ((.def_325 (not .def_322))) (let ((.def_326 (and .def_325 .def_165))) (let ((.def_327 (not .def_326))) (let ((.def_328 (and .def_327 .def_324))) (let ((.def_329 (not .def_328))) (let ((.def_330 (and .def_329 .def_321))) (let ((.def_331 (not .def_330))) (let ((.def_332 (and .def_328 .def_320))) (let ((.def_333 (not .def_332))) (let ((.def_334 (and .def_333 .def_331))) (let ((.def_335 (not .def_334))) (let ((.def_336 (and .def_335 .def_60))) (let ((.def_337 (not .def_336))) (let ((.def_338 (and .def_200 G217))) (let ((.def_339 (and .def_338 .def_337))) (let ((.def_340 (not .def_339))) (let ((.def_341 (not .def_338))) (let ((.def_342 (and .def_341 .def_336))) (let ((.def_343 (not .def_342))) (let ((.def_344 (and .def_343 .def_340))) (let ((.def_345 (not .def_344))) (let ((.def_346 (and .def_16 .def_15 G210))) (let ((.def_347 (and G101 .def_346))) (let ((.def_348 (not .def_347))) (let ((.def_349 (not .def_346))) (let ((.def_350 (and .def_134 .def_349))) (let ((.def_351 (not .def_350))) (let ((.def_352 (and .def_351 .def_348))) (let ((.def_353 (not .def_352))) (let ((.def_354 (and .def_73 G119))) (let ((.def_355 (not .def_354))) (let ((.def_356 (and .def_210 .def_355))) (let ((.def_357 (and .def_39 .def_356))) (let ((.def_358 (not .def_357))) (let ((.def_359 (not .def_356))) (let ((.def_360 (and .def_359 G113))) (let ((.def_361 (not .def_360))) (let ((.def_362 (and .def_361 .def_358))) (let ((.def_363 (and .def_258 .def_176))) (let ((.def_364 (not .def_363))) (let ((.def_365 (and .def_177 .def_261))) (let ((.def_366 (not .def_365))) (let ((.def_367 (and .def_366 .def_364))) (let ((.def_368 (and .def_367 .def_362))) (let ((.def_369 (not .def_368))) (let ((.def_370 (not .def_362))) (let ((.def_371 (not .def_367))) (let ((.def_372 (and .def_371 .def_370))) (let ((.def_373 (not .def_372))) (let ((.def_374 (and .def_373 .def_369))) (let ((.def_375 (and .def_374 .def_353))) (let ((.def_376 (not .def_375))) (let ((.def_377 (not .def_374))) (let ((.def_378 (and .def_352 .def_377))) (let ((.def_379 (not .def_378))) (let ((.def_380 (and .def_379 .def_376))) (let ((.def_381 (not .def_380))) (let ((.def_382 (and .def_60 .def_381))) (let ((.def_383 (not .def_382))) (let ((.def_384 (and G472 .def_383))) (let ((.def_385 (not .def_384))) (let ((.def_386 (not G472))) (let ((.def_387 (and .def_386 .def_382))) (let ((.def_388 (not .def_387))) (let ((.def_389 (and .def_388 .def_385))) (let ((.def_390 (not .def_389))) (let ((.def_391 (and .def_390 .def_345))) (let ((.def_392 (and .def_391 .def_299 .def_290 .def_203 .def_119))) (let ((.def_393 (and .def_208 .def_392))) (let ((.def_394 (not .def_393))) (let ((.def_395 (not .def_392))) (let ((.def_396 (and .def_395 G119))) (let ((.def_397 (not .def_396))) (let ((.def_398 (and .def_397 .def_394))) (let ((.def_399 (and G224 G898))) (let ((.def_400 (not .def_399))) (let ((.def_401 (and .def_400 G953))) (let ((.def_402 (and .def_233 .def_234))) (let ((.def_403 (not .def_402))) (let ((.def_404 (and .def_403 .def_232))) (let ((.def_405 (and .def_242 .def_404))) (let ((.def_406 (not .def_405))) (let ((.def_407 (not .def_404))) (let ((.def_408 (and .def_407 .def_246))) (let ((.def_409 (not .def_408))) (let ((.def_410 (and .def_409 .def_406))) (let ((.def_411 (and .def_293 G953))) (let ((.def_412 (not .def_411))) (let ((.def_413 (and .def_412 .def_410))) (let ((.def_414 (not .def_413))) (let ((.def_415 (and .def_390 .def_344))) (let ((.def_416 (not .def_68))) (let ((.def_417 (and .def_118 .def_416))) (let ((.def_418 (and .def_417 .def_415 .def_299 .def_290 .def_203))) (let ((.def_419 (not .def_418))) (let ((.def_420 (not .def_198))) (let ((.def_421 (and .def_202 .def_420))) (let ((.def_422 (and .def_119 .def_415 .def_299 .def_290 .def_421))) (let ((.def_423 (not .def_422))) (let ((.def_424 (not .def_118))) (let ((.def_425 (and .def_68 .def_424))) (let ((.def_426 (and .def_389 .def_344))) (let ((.def_427 (and .def_426 .def_425 .def_299 .def_290 .def_421))) (let ((.def_428 (not .def_427))) (let ((.def_429 (and .def_389 .def_345))) (let ((.def_430 (and .def_119 .def_429 .def_299 .def_290 .def_421))) (let ((.def_431 (not .def_430))) (let ((.def_432 (and .def_426 .def_417 .def_299 .def_290 .def_421))) (let ((.def_433 (not .def_432))) (let ((.def_434 (and .def_424 .def_416))) (let ((.def_435 (and .def_426 .def_434 .def_299 .def_290 .def_203))) (let ((.def_436 (not .def_435))) (let ((.def_437 (and .def_415 .def_425 .def_299 .def_290 .def_203))) (let ((.def_438 (not .def_437))) (let ((.def_439 (and .def_438 .def_436 .def_433 .def_431 .def_428 .def_423 .def_395 .def_419))) (let ((.def_440 (not .def_439))) (let ((.def_441 (and .def_16 .def_440))) (let ((.def_442 (and .def_441 .def_414))) (let ((.def_443 (not .def_442))) (let ((.def_444 (not .def_441))) (let ((.def_445 (and .def_444 .def_413))) (let ((.def_446 (not .def_445))) (let ((.def_447 (and .def_446 .def_443))) (let ((.def_448 (and .def_447 .def_401))) (let ((.def_449 (not .def_448))) (let ((.def_450 (not .def_401))) (let ((.def_451 (not .def_447))) (let ((.def_452 (and .def_451 .def_450))) (let ((.def_453 (not .def_452))) (let ((.def_454 (and .def_453 .def_449))) (let ((.def_455 (not G952))) (let ((.def_456 (and .def_455 G953))) (let ((.def_457 (not .def_456))) (let ((.def_458 (and G125 .def_261))) (let ((.def_459 (not .def_458))) (let ((.def_460 (and .def_459 .def_260))) (let ((.def_461 (and .def_265 .def_460))) (let ((.def_462 (not .def_461))) (let ((.def_463 (not .def_460))) (let ((.def_464 (and .def_463 .def_268))) (let ((.def_465 (not .def_464))) (let ((.def_466 (and .def_465 .def_462))) (let ((.def_467 (and .def_275 .def_466))) (let ((.def_468 (not .def_467))) (let ((.def_469 (not .def_466))) (let ((.def_470 (and .def_469 .def_249))) (let ((.def_471 (not .def_470))) (let ((.def_472 (and .def_471 .def_468))) (let ((.def_473 (and .def_207 .def_288))) (let ((.def_474 (not G900))) (let ((.def_475 (and .def_292 G953 G902 .def_474))) (let ((.def_476 (not .def_475))) (let ((.def_477 (and .def_476 .def_297))) (let ((.def_478 (not .def_477))) (let ((.def_479 (and .def_421 .def_415 .def_478 .def_425 .def_473))) (let ((.def_480 (not .def_479))) (let ((.def_481 (and .def_421 .def_391 .def_478 .def_473 .def_119))) (let ((.def_482 (not .def_481))) (let ((.def_483 (and .def_391 .def_478 .def_425 .def_290 .def_421))) (let ((.def_484 (not .def_483))) (let ((.def_485 (and .def_421 .def_391 .def_417 .def_478 .def_290))) (let ((.def_486 (not .def_485))) (let ((.def_487 (and .def_421 .def_417 .def_415 .def_478 .def_473))) (let ((.def_488 (not .def_487))) (let ((.def_489 (and .def_417 .def_478 .def_429 .def_290 .def_203))) (let ((.def_490 (not .def_489))) (let ((.def_491 (and .def_421 .def_417 .def_478 .def_429 .def_473))) (let ((.def_492 (not .def_491))) (let ((.def_493 (and .def_421 .def_434 .def_415 .def_478 .def_290))) (let ((.def_494 (not .def_493))) (let ((.def_495 (and .def_494 .def_492 .def_490 .def_488 .def_486 .def_484 .def_482 .def_480))) (let ((.def_496 (and .def_495 .def_439))) (let ((.def_497 (not .def_496))) (let ((.def_498 (and .def_497 G902 .def_282))) (let ((.def_499 (and .def_498 .def_472))) (let ((.def_500 (not .def_499))) (let ((.def_501 (not .def_498))) (let ((.def_502 (not .def_472))) (let ((.def_503 (and .def_502 .def_501))) (let ((.def_504 (not .def_503))) (let ((.def_505 (and .def_504 .def_500))) (let ((.def_506 (not .def_505))) (let ((.def_507 (and .def_506 .def_457))) (let ((.def_508 (not .def_507))) (let ((.def_509 (and G125 .def_490))) (let ((.def_510 (not .def_509))) (let ((.def_511 (and .def_0 .def_489))) (let ((.def_512 (not .def_511))) (let ((.def_513 (and .def_512 .def_510))) (let ((.def_514 (and .def_497 G902 G478))) (let ((.def_515 (and .def_109 .def_514))) (let ((.def_516 (not .def_515))) (let ((.def_517 (not .def_514))) (let ((.def_518 (and .def_110 .def_517))) (let ((.def_519 (not .def_518))) (let ((.def_520 (and .def_519 .def_516))) (let ((.def_521 (not .def_520))) (let ((.def_522 (and .def_457 .def_521))) (let ((.def_523 (not .def_522))) (let ((.def_524 (and .def_349 .def_134))) (let ((.def_525 (not .def_524))) (let ((.def_526 (and .def_346 G101))) (let ((.def_527 (not .def_526))) (let ((.def_528 (and .def_527 .def_525))) (let ((.def_529 (and .def_497 G472 G902))) (let ((.def_530 (and .def_261 .def_177))) (let ((.def_531 (not .def_530))) (let ((.def_532 (and .def_531 .def_364))) (let ((.def_533 (and .def_532 .def_362))) (let ((.def_534 (not .def_533))) (let ((.def_535 (not .def_532))) (let ((.def_536 (and .def_370 .def_535))) (let ((.def_537 (not .def_536))) (let ((.def_538 (and .def_537 .def_534))) (let ((.def_539 (and .def_538 .def_529))) (let ((.def_540 (not .def_539))) (let ((.def_541 (not .def_529))) (let ((.def_542 (not .def_538))) (let ((.def_543 (and .def_542 .def_541))) (let ((.def_544 (not .def_543))) (let ((.def_545 (and .def_544 .def_540))) (let ((.def_546 (not .def_545))) (let ((.def_547 (and .def_546 .def_528))) (let ((.def_548 (not .def_547))) (let ((.def_549 (not .def_528))) (let ((.def_550 (and .def_545 .def_549))) (let ((.def_551 (not .def_550))) (let ((.def_552 (and .def_551 .def_548))) (let ((.def_553 (not .def_552))) (let ((.def_554 (and .def_553 .def_457))) (let ((.def_555 (and .def_437 .def_73))) (let ((.def_556 (not .def_555))) (let ((.def_557 (and G116 .def_438))) (let ((.def_558 (not .def_557))) (let ((.def_559 (and .def_558 .def_556))) (let ((.def_560 (and G900 G227))) (let ((.def_561 (not .def_560))) (let ((.def_562 (and G953 .def_561))) (let ((.def_563 (and G125 .def_3))) (let ((.def_564 (not .def_563))) (let ((.def_565 (and .def_2 .def_564))) (let ((.def_566 (and G137 .def_84))) (let ((.def_567 (not .def_566))) (let ((.def_568 (and .def_567 .def_167))) (let ((.def_569 (not .def_568))) (let ((.def_570 (and .def_569 G131))) (let ((.def_571 (not .def_570))) (let ((.def_572 (and .def_14 .def_568))) (let ((.def_573 (not .def_572))) (let ((.def_574 (and .def_573 .def_571))) (let ((.def_575 (and .def_574 .def_157))) (let ((.def_576 (not .def_575))) (let ((.def_577 (not .def_574))) (let ((.def_578 (and .def_158 .def_577))) (let ((.def_579 (not .def_578))) (let ((.def_580 (and .def_579 .def_576))) (let ((.def_581 (and .def_580 .def_565))) (let ((.def_582 (not .def_581))) (let ((.def_583 (not .def_565))) (let ((.def_584 (not .def_580))) (let ((.def_585 (and .def_584 .def_583))) (let ((.def_586 (not .def_585))) (let ((.def_587 (and .def_586 .def_582))) (let ((.def_588 (and G953 .def_474))) (let ((.def_589 (not .def_588))) (let ((.def_590 (and .def_589 .def_587))) (let ((.def_591 (not .def_590))) (let ((.def_592 (not .def_495))) (let ((.def_593 (and .def_592 .def_16))) (let ((.def_594 (and .def_593 .def_591))) (let ((.def_595 (not .def_594))) (let ((.def_596 (not .def_593))) (let ((.def_597 (and .def_596 .def_590))) (let ((.def_598 (not .def_597))) (let ((.def_599 (and .def_598 .def_595))) (let ((.def_600 (and .def_599 .def_562))) (let ((.def_601 (not .def_600))) (let ((.def_602 (not .def_562))) (let ((.def_603 (not .def_599))) (let ((.def_604 (and .def_603 .def_602))) (let ((.def_605 (not .def_604))) (let ((.def_606 (and .def_605 .def_601))) (let ((.def_607 (not .def_606))) (let ((.def_608 (and G104 .def_433))) (let ((.def_609 (not .def_608))) (let ((.def_610 (and .def_38 .def_432))) (let ((.def_611 (not .def_610))) (let ((.def_612 (and .def_611 .def_609))) (let ((.def_613 (not .def_612))) (let ((.def_614 (and .def_431 G110))) (let ((.def_615 (not .def_614))) (let ((.def_616 (and .def_430 .def_122))) (let ((.def_617 (not .def_616))) (let ((.def_618 (and .def_617 .def_615))) (let ((.def_619 (not .def_618))) (let ((.def_620 (and .def_497 G902 G475))) (let ((.def_621 (and .def_58 .def_620))) (let ((.def_622 (not .def_621))) (let ((.def_623 (not .def_620))) (let ((.def_624 (and .def_623 .def_59))) (let ((.def_625 (not .def_624))) (let ((.def_626 (and .def_625 .def_622))) (let ((.def_627 (not .def_626))) (let ((.def_628 (and .def_457 .def_627))) (let ((.def_629 (not .def_628))) (let ((.def_630 (and .def_497 G902 .def_338))) (let ((.def_631 (and .def_630 .def_334))) (let ((.def_632 (not .def_631))) (let ((.def_633 (not .def_630))) (let ((.def_634 (and .def_633 .def_335))) (let ((.def_635 (not .def_634))) (let ((.def_636 (and .def_635 .def_632))) (let ((.def_637 (not .def_636))) (let ((.def_638 (and .def_637 .def_457))) (let ((.def_639 (and .def_85 .def_483))) (let ((.def_640 (not .def_639))) (let ((.def_641 (and .def_484 G128))) (let ((.def_642 (not .def_641))) (let ((.def_643 (and .def_642 .def_640))) (let ((.def_644 (not .def_643))) (let ((.def_645 (and .def_3 .def_491))) (let ((.def_646 (not .def_645))) (let ((.def_647 (and G140 .def_492))) (let ((.def_648 (not .def_647))) (let ((.def_649 (and .def_648 .def_646))) (let ((.def_650 (and .def_122 G140))) (let ((.def_651 (not .def_650))) (let ((.def_652 (and .def_651 .def_121))) (let ((.def_653 (and .def_652 .def_126))) (let ((.def_654 (not .def_653))) (let ((.def_655 (not .def_652))) (let ((.def_656 (and .def_655 .def_130))) (let ((.def_657 (not .def_656))) (let ((.def_658 (and .def_657 .def_654))) (let ((.def_659 (and .def_157 .def_145))) (let ((.def_660 (not .def_659))) (let ((.def_661 (and .def_146 .def_158))) (let ((.def_662 (not .def_661))) (let ((.def_663 (and .def_662 .def_660))) (let ((.def_664 (not .def_663))) (let ((.def_665 (and .def_664 .def_177))) (let ((.def_666 (not .def_665))) (let ((.def_667 (and .def_663 .def_176))) (let ((.def_668 (not .def_667))) (let ((.def_669 (and .def_668 .def_666))) (let ((.def_670 (and .def_669 .def_658))) (let ((.def_671 (not .def_670))) (let ((.def_672 (not .def_658))) (let ((.def_673 (not .def_669))) (let ((.def_674 (and .def_673 .def_672))) (let ((.def_675 (not .def_674))) (let ((.def_676 (and .def_675 .def_671))) (let ((.def_677 (and .def_497 G902 G469))) (let ((.def_678 (and .def_677 .def_676))) (let ((.def_679 (not .def_678))) (let ((.def_680 (not .def_676))) (let ((.def_681 (not .def_677))) (let ((.def_682 (and .def_681 .def_680))) (let ((.def_683 (not .def_682))) (let ((.def_684 (and .def_683 .def_679))) (let ((.def_685 (not .def_684))) (let ((.def_686 (and .def_685 .def_457))) (let ((.def_687 (and .def_686 .def_649 .def_644 .def_638 .def_629 .def_619 .def_613 .def_607 .def_559 .def_554 .def_523 .def_513 .def_508 .def_454 .def_398))) .def_687)))))))))))))))))))))))))))))))))))))))))))))))))))))))))))))))))))))))))))))))))))))))))))))))))))))))))))))))))))))))))))))))))))))))))))))))))))))))))))))))))))))))))))))))))))))))))))))))))))))))))))))))))))))))))))))))))))))))))))))))))))))))))))))))))))))))))))))))))))))))))))))))))))))))))))))))))))))))))))))))))))))))))))))))))))))))))))))))))))))))))))))))))))))))))))))))))))))))))))))))))))))))))))))))))))))))))))))))))))))))))))))))))))))))))))))))))))))))))))))))))))))))))))))))))))))))))))))))))))))))))))))))))))))))))))))))))))))))))))))))))))))))))))))))))))))))))))))))))))))))))))))))))))))))))))))))))))))))))))))))))))))))))))))))))))))))))))))))))))))))))))))))))
(check-sat)
